!   File created by MacMolPlt 7.6.2
 $CONTRL SCFTYP=ROHF RUNTYP=OPTIMIZE MAXIT=200 MULT=2 $END
 $BASIS GBASIS=N31 NGAUSS=6 NDFUNC=1 NPFUNC=1 $END
 $SCF DIRSCF=.TRUE. $END
 $DATA 
CH3
C1
C  6.0  0.00  0.00  0.00
H  1.0  0.00  -1.00  -1.00
H  1.0  0.00  1.00  -1.00
H  1.0  1.00 0.00 1.00
 $END
