!   File created by MacMolPlt 7.6.2
 $CONTRL SCFTYP=UHF RUNTYP=OPTIMIZE MAXIT=200 MULT=1 ICHARG=-1 $END
 $BASIS GBASIS=N31 NGAUSS=6 NDFUNC=1 NPFUNC=1 $END
! $SCF DIRSCF=.TRUE. $END
 $DATA 
CH3OH
C1
C  6.0  0.00  0.00  0.00
O  8.0  1.00  0.00  0.20
H  1.0  -1.00  0.00  -1.00
H  1.0  0.00  1.00  1.00
H  1.0  0.00  -1.00  -1.00
 $END
!H  1.0  2.00  0.00  1.00
