 $CONTRL SCFTYP=RHF CCTYP=CCSD(T) RUNTYP=HESSIAN ISPHER=1 $END
 $SYSTEM MWORDS=4 MEMDDI=8 $END
 $BASIS GBASIS=ACCT $END
 $FORCE METHOD=FULLNUM $END
 $DATA
H2O
Cnv 2

 O           8.0   0.0000000000   0.0000000000   0.5605712477
 H           1.0  -0.0000000000   0.7586662873  -0.0302856238
 $END
