 $CONTRL SCFTYP=RHF MPLEVL=2 RUNTYP=HESSIAN ISPHER=1 $END
 $BASIS GBASIS=ACCT $END
 $DATA
H2O
C1
 H 1 0.0000000000 -0.7581334599 -0.0303858562
 H 1 0.0000000000 0.7581334598 -0.0303858561
 O 8 0.0000000000 0.0000000001 0.5607717123
 $END
