 $BASIS GBASIS=CCT $END
 $CONTRL SCFTYP=RHF RUNTYP=OPTIMIZE ISPHER=1 $END
 $DATA
comment
C1
H 1 0 0 0
F 9 1 0 0
 $END
