 $BASIS GBASIS=STO NGAUSS=3 $END
 $CONTRL SCFTYP=RHF RUNTYP=OPTIMIZE $END
 $DATA
comment
C1
H 1 0 0 0
F 9 1 0 0
 $END
