 $CONTRL SCFTYP=RHF RUNTYP=HESSIAN $END
 $BASIS GBASIS=STO NGAUSS=3 $END
 $DATA
H2O
C1
 H 1 0 -0.758080739 -0.0452674254
 H 1 0 0.758080739 -0.0452674254
 O 8 0 0 0.5905348508
 $END
