 $CONTRL SCFTYP=RHF RUNTYP=HESSIAN ISPHER=1 $END
 $BASIS GBASIS=ACCT $END
 $DATA
H2O
C1
 H 1 0.0000000000 -0.7530896478 -0.0214179096
 H 1 0.0000000000 0.7530896478 -0.0214179096
 O 8 0.0000000000 0.0000000000 0.5428358192
 $END
