 $CONTRL SCFTYP=RHF RUNTYP=HESSIAN ISPHER=1 $END
 $BASIS GBASIS=CCT $END
 $DATA
H2O
C1
 H 1 0.0000000000 -0.7512063522 -0.0220193064
 H 1 0.0000000000 0.7512063522 -0.0220193064
 O 8 0.0000000000 0.0000000000 0.5440386129
 $END
