 $CONTRL SCFTYP=RHF RUNTYP=HESSIAN $END
 $BASIS GBASIS=N31 NGAUSS=6 NDFUNC=1 NPFUNC=1 $END
 $DATA
H2O
C1
 H 1 0.0000000000 -0.7530038224 -0.0225836400
 H 1 0.0000000000 0.7530038224 -0.0225836400
 O 8 0.0000000000 0.0000000000 0.5451672800
 $END
