 $CONTRL SCFTYP=RHF RUNTYP=HESSIAN $END
 $BASIS GBASIS=N31 NGAUSS=4 $END
 $DATA
H2O
C1
 H 1 0.0000000000 -0.7843998145 -0.0122505215
 H 1 0.0000000000 0.7843998145 -0.0122505215
 O 8 0.0000000000 0.0000000000 0.5245010430
 $END
