 $CONTRL SCFTYP=RHF RUNTYP=HESSIAN $END
 $BASIS GBASIS=N31 NGAUSS=6 $END
 $DATA
H2O
C1
 H 1 0.0000000000 -0.7851665853 -0.0113820087
 H 1 0.0000000000 0.7851665853 -0.0113820087
 O 8 0.0000000000 0.0000000000 0.5227640173
 $END
