 $CONTRL SCFTYP=ROHF CCTYP=CCSD RUNTYP=OPTIMIZE ISPHER=1
    ICHARG=1 MULT=2 NUMGRD=.T. $END
 $SYSTEM MWORDS=32 MEMDDI=64 $END
 $BASIS GBASIS=ACCT $END
 $DATA
H2O
Cnv 2

 O 8.0 0 0 0.5
 H 1.0 0 1.0 0
 $END
