 $CONTRL SCFTYP=ROHF RUNTYP=OPTIMIZE ICHARG=1 MULT=2 $END
 $STATPT OPTTOL=1E-12 NSTEP=1000 $END
 $BASIS GBASIS=N31 NGAUSS=6 $END
 $DATA
H2O
C1
 H 1 0.0 -1.0 0.0
 H 1 0.0 1.0 0.0
 O 8 0.0 0.0 0.5
 $END
